Input: forum-13crafb.prec15.dzn
============================================================
Total Runtime: 2.8179 seconds
Input parsing: 0.0011 seconds
Constraint building: 0.6852 seconds
MaxSAT solving: 1.6701 seconds
============================================================

Total variables: 222313
Total clauses: 473270
MaxSAT found with cost: 0
NO SOLUTION FOUND
